\ Model knapsack_100_1_5
\ LP format - for model browsing. Use MPS format to capture full model detail.
\ Signature: 0x740ba5accce4d813
Minimize
  69.96 x[0] + 25.93 x[1] + 55.78 x[2] + 20.67 x[3] + 155.92 x[4]
   + 110.29 x[5] + 20.73 x[6] + 167.59 x[7] + 147.53 x[8] + 133.26 x[9]
   + 114.15 x[10] + 154.76 x[11] + 72.78 x[12] + 54.33 x[13] + 91.26 x[14]
   + 19.68 x[15] + 69.77 x[16] + 98 x[17] + 113.88 x[18] + 111.62 x[19]
   + 205.89 x[20] + 164.19 x[21] + 69.45 x[22] + 23.19 x[23] + 150.6 x[24]
   + 80.69 x[25] + 172.39 x[26] + 138.23 x[27] + 81.4 x[28] + 77.06 x[29]
   + 26.5 x[30] + 116.16 x[31] + 67.32 x[32] + 114.74 x[33] + 95.11 x[34]
   + 69.53 x[35] + 74.13 x[36] + 68.97 x[37] + 144.82 x[38] + 131.8 x[39]
   + 101.4 x[40] + 35.29 x[41] + 86.49 x[42] + 91.76 x[43] + 128.33 x[44]
   + 11.57 x[45] + 108.88 x[46] + 52.93 x[47] + 158.93 x[48] + 194.76 x[49]
   + 81.67 x[50] + 110.87 x[51] + 18.29 x[52] + 69.22 x[53] + 125.25 x[54]
   + 75.47 x[55] + 84.7 x[56] + 83.55 x[57] + 172.02 x[58] + 83.5 x[59]
   + 71.88 x[60] + 80.26 x[61] + 31.16 x[62] + 148.69 x[63] + 31.16 x[64]
   + 78.72 x[65] + 185.68 x[66] + 113.44 x[67] + 141.73 x[68] + 85.76 x[69]
   + 109.45 x[70] + 119.96 x[71] + 86.25 x[72] + 38.73 x[73] + 27.04 x[74]
   + 43.29 x[75] + 28.43 x[76] + 39.12 x[77] + 72.09 x[78] + 79.3 x[79]
   + 154.14 x[80] + 130.23 x[81] + 110.6 x[82] + 75.23 x[83] + 50.1 x[84]
   + 92.6 x[85] + 13.44 x[86] + 121.44 x[87] + 161.55 x[88] + 38.68 x[89]
   + 40.5 x[90] + 119.17 x[91] + 166.89 x[92] + 59.97 x[93] + 170.73 x[94]
   + 140.62 x[95] + 45.37 x[96] + 98.39 x[97] + 67.72 x[98] + 41.53 x[99]
   - 486 y[0] - 179 y[1] - 343 y[2] - 119 y[3] - 865 y[4] - 597 y[5]
   - 158 y[6] - 909 y[7] - 859 y[8] - 910 y[9] - 1068 y[10] - 1090 y[11]
   - 540 y[12] - 406 y[13] - 558 y[14] - 164 y[15] - 564 y[16] - 923 y[17]
   - 645 y[18] - 627 y[19] - 1074 y[20] - 1092 y[21] - 534 y[22]
   - 188 y[23] - 859 y[24] - 680 y[25] - 943 y[26] - 787 y[27] - 579 y[28]
   - 444 y[29] - 175 y[30] - 941 y[31] - 476 y[32] - 947 y[33] - 875 y[34]
   - 603 y[35] - 464 y[36] - 647 y[37] - 921 y[38] - 730 y[39] - 524 y[40]
   - 262 y[41] - 458 y[42] - 752 y[43] - 683 y[44] - 105 y[45] - 633 y[46]
   - 393 y[47] - 843 y[48] - 1094 y[49] - 715 y[50] - 679 y[51] - 121 y[52]
   - 501 y[53] - 858 y[54] - 544 y[55] - 492 y[56] - 511 y[57] - 962 y[58]
   - 537 y[59] - 664 y[60] - 474 y[61] - 238 y[62] - 1057 y[63] - 258 y[64]
   - 497 y[65] - 1072 y[66] - 912 y[67] - 1051 y[68] - 680 y[69]
   - 844 y[70] - 1086 y[71] - 507 y[72] - 358 y[73] - 247 y[74] - 288 y[75]
   - 219 y[76] - 347 y[77] - 577 y[78] - 668 y[79] - 934 y[80] - 961 y[81]
   - 1044 y[82] - 518 y[83] - 341 y[84] - 814 y[85] - 120 y[86] - 804 y[87]
   - 990 y[88] - 215 y[89] - 309 y[90] - 828 y[91] - 936 y[92] - 345 y[93]
   - 1012 y[94] - 933 y[95] - 358 y[96] - 801 y[97] - 467 y[98] - 386 y[99]
Subject To
 primal_upper: 386 y[0] + 79 y[1] + 243 y[2] + 19 y[3] + 765 y[4]
   + 497 y[5] + 58 y[6] + 809 y[7] + 759 y[8] + 810 y[9] + 968 y[10]
   + 990 y[11] + 440 y[12] + 306 y[13] + 458 y[14] + 64 y[15] + 464 y[16]
   + 823 y[17] + 545 y[18] + 527 y[19] + 974 y[20] + 992 y[21] + 434 y[22]
   + 88 y[23] + 759 y[24] + 580 y[25] + 843 y[26] + 687 y[27] + 479 y[28]
   + 344 y[29] + 75 y[30] + 841 y[31] + 376 y[32] + 847 y[33] + 775 y[34]
   + 503 y[35] + 364 y[36] + 547 y[37] + 821 y[38] + 630 y[39] + 424 y[40]
   + 162 y[41] + 358 y[42] + 652 y[43] + 583 y[44] + 5 y[45] + 533 y[46]
   + 293 y[47] + 743 y[48] + 994 y[49] + 615 y[50] + 579 y[51] + 21 y[52]
   + 401 y[53] + 758 y[54] + 444 y[55] + 392 y[56] + 411 y[57] + 862 y[58]
   + 437 y[59] + 564 y[60] + 374 y[61] + 138 y[62] + 957 y[63] + 158 y[64]
   + 397 y[65] + 972 y[66] + 812 y[67] + 951 y[68] + 580 y[69] + 744 y[70]
   + 986 y[71] + 407 y[72] + 258 y[73] + 147 y[74] + 188 y[75] + 119 y[76]
   + 247 y[77] + 477 y[78] + 568 y[79] + 834 y[80] + 861 y[81] + 944 y[82]
   + 418 y[83] + 241 y[84] + 714 y[85] + 20 y[86] + 704 y[87] + 890 y[88]
   + 115 y[89] + 209 y[90] + 728 y[91] + 836 y[92] + 245 y[93] + 912 y[94]
   + 833 y[95] + 258 y[96] + 701 y[97] + 367 y[98] + 286 y[99] + 39 z[0]
   + 8 z[1] + 24 z[2] + 2 z[3] + 76 z[4] + 50 z[5] + 6 z[6] + 81 z[7]
   + 76 z[8] + 81 z[9] + 97 z[10] + 99 z[11] + 44 z[12] + 31 z[13]
   + 46 z[14] + 6 z[15] + 46 z[16] + 82 z[17] + 54 z[18] + 53 z[19]
   + 97 z[20] + 99 z[21] + 43 z[22] + 9 z[23] + 76 z[24] + 58 z[25]
   + 84 z[26] + 69 z[27] + 48 z[28] + 34 z[29] + 8 z[30] + 84 z[31]
   + 38 z[32] + 85 z[33] + 78 z[34] + 50 z[35] + 36 z[36] + 55 z[37]
   + 82 z[38] + 63 z[39] + 42 z[40] + 16 z[41] + 36 z[42] + 65 z[43]
   + 58 z[44] + 53 z[46] + 29 z[47] + 74 z[48] + 99 z[49] + 62 z[50]
   + 58 z[51] + 2 z[52] + 40 z[53] + 76 z[54] + 44 z[55] + 39 z[56]
   + 41 z[57] + 86 z[58] + 44 z[59] + 56 z[60] + 37 z[61] + 14 z[62]
   + 96 z[63] + 16 z[64] + 40 z[65] + 97 z[66] + 81 z[67] + 95 z[68]
   + 58 z[69] + 74 z[70] + 99 z[71] + 41 z[72] + 26 z[73] + 15 z[74]
   + 19 z[75] + 12 z[76] + 25 z[77] + 48 z[78] + 57 z[79] + 83 z[80]
   + 86 z[81] + 94 z[82] + 42 z[83] + 24 z[84] + 71 z[85] + 2 z[86]
   + 70 z[87] + 89 z[88] + 12 z[89] + 21 z[90] + 73 z[91] + 84 z[92]
   + 24 z[93] + 91 z[94] + 83 z[95] + 26 z[96] + 70 z[97] + 37 z[98]
   + 29 z[99] <= 8799
 primal_lower0: 143 u[0] + 313 u[1] + 155 u[2] + 466 u[3] + 753 u[4]
   + 35 u[5] + 714 u[6] + 735 u[7] + 651 u[8] + 117 u[9] + 497 u[10]
   + 308 u[11] + 228 u[12] + 997 u[13] + 99 u[14] + 167 u[15] + 4 u[16]
   + 746 u[17] + 361 u[18] + 6 u[19] + 691 u[20] + 882 u[21] + 10 u[22]
   + 78 u[23] + 315 u[24] + 374 u[25] + 363 u[26] + 829 u[27] + 708 u[28]
   + 626 u[29] + 324 u[30] + 183 u[31] + 948 u[32] + 729 u[33] + 927 u[34]
   + 357 u[35] + 544 u[36] + 198 u[37] + 909 u[38] + 709 u[39] + 100 u[40]
   + 901 u[41] + 991 u[42] + 858 u[43] + 779 u[44] + 383 u[45] + 774 u[46]
   + 947 u[47] + 364 u[48] + 356 u[49] + 55 u[50] + 474 u[51] + 665 u[52]
   + 827 u[53] + 935 u[54] + 579 u[55] + 77 u[56] + 781 u[57] + 278 u[58]
   + 876 u[59] + 57 u[60] + 960 u[61] + 507 u[62] + 579 u[63] + 915 u[64]
   + 575 u[65] + 444 u[66] + 634 u[67] + 747 u[68] + 375 u[69] + 768 u[70]
   + 768 u[71] + 931 u[72] + 140 u[73] + 196 u[74] + 18 u[75] + 995 u[76]
   + 266 u[77] + 590 u[78] + 783 u[79] + 494 u[80] + 607 u[81] + 473 u[82]
   + 817 u[83] + 789 u[84] + 805 u[85] + 637 u[86] + 606 u[87] + 806 u[88]
   + 414 u[89] + 834 u[90] + 542 u[91] + 985 u[92] + 464 u[93] + 609 u[94]
   + 88 u[95] + 542 u[96] + 136 u[97] + 391 u[98] + 765 u[99] <= 26625
 interdiction[0]: x[0] + u[0] <= 1
 interdiction[1]: x[1] + u[1] <= 1
 interdiction[2]: x[2] + u[2] <= 1
 interdiction[3]: x[3] + u[3] <= 1
 interdiction[4]: x[4] + u[4] <= 1
 interdiction[5]: x[5] + u[5] <= 1
 interdiction[6]: x[6] + u[6] <= 1
 interdiction[7]: x[7] + u[7] <= 1
 interdiction[8]: x[8] + u[8] <= 1
 interdiction[9]: x[9] + u[9] <= 1
 interdiction[10]: x[10] + u[10] <= 1
 interdiction[11]: x[11] + u[11] <= 1
 interdiction[12]: x[12] + u[12] <= 1
 interdiction[13]: x[13] + u[13] <= 1
 interdiction[14]: x[14] + u[14] <= 1
 interdiction[15]: x[15] + u[15] <= 1
 interdiction[16]: x[16] + u[16] <= 1
 interdiction[17]: x[17] + u[17] <= 1
 interdiction[18]: x[18] + u[18] <= 1
 interdiction[19]: x[19] + u[19] <= 1
 interdiction[20]: x[20] + u[20] <= 1
 interdiction[21]: x[21] + u[21] <= 1
 interdiction[22]: x[22] + u[22] <= 1
 interdiction[23]: x[23] + u[23] <= 1
 interdiction[24]: x[24] + u[24] <= 1
 interdiction[25]: x[25] + u[25] <= 1
 interdiction[26]: x[26] + u[26] <= 1
 interdiction[27]: x[27] + u[27] <= 1
 interdiction[28]: x[28] + u[28] <= 1
 interdiction[29]: x[29] + u[29] <= 1
 interdiction[30]: x[30] + u[30] <= 1
 interdiction[31]: x[31] + u[31] <= 1
 interdiction[32]: x[32] + u[32] <= 1
 interdiction[33]: x[33] + u[33] <= 1
 interdiction[34]: x[34] + u[34] <= 1
 interdiction[35]: x[35] + u[35] <= 1
 interdiction[36]: x[36] + u[36] <= 1
 interdiction[37]: x[37] + u[37] <= 1
 interdiction[38]: x[38] + u[38] <= 1
 interdiction[39]: x[39] + u[39] <= 1
 interdiction[40]: x[40] + u[40] <= 1
 interdiction[41]: x[41] + u[41] <= 1
 interdiction[42]: x[42] + u[42] <= 1
 interdiction[43]: x[43] + u[43] <= 1
 interdiction[44]: x[44] + u[44] <= 1
 interdiction[45]: x[45] + u[45] <= 1
 interdiction[46]: x[46] + u[46] <= 1
 interdiction[47]: x[47] + u[47] <= 1
 interdiction[48]: x[48] + u[48] <= 1
 interdiction[49]: x[49] + u[49] <= 1
 interdiction[50]: x[50] + u[50] <= 1
 interdiction[51]: x[51] + u[51] <= 1
 interdiction[52]: x[52] + u[52] <= 1
 interdiction[53]: x[53] + u[53] <= 1
 interdiction[54]: x[54] + u[54] <= 1
 interdiction[55]: x[55] + u[55] <= 1
 interdiction[56]: x[56] + u[56] <= 1
 interdiction[57]: x[57] + u[57] <= 1
 interdiction[58]: x[58] + u[58] <= 1
 interdiction[59]: x[59] + u[59] <= 1
 interdiction[60]: x[60] + u[60] <= 1
 interdiction[61]: x[61] + u[61] <= 1
 interdiction[62]: x[62] + u[62] <= 1
 interdiction[63]: x[63] + u[63] <= 1
 interdiction[64]: x[64] + u[64] <= 1
 interdiction[65]: x[65] + u[65] <= 1
 interdiction[66]: x[66] + u[66] <= 1
 interdiction[67]: x[67] + u[67] <= 1
 interdiction[68]: x[68] + u[68] <= 1
 interdiction[69]: x[69] + u[69] <= 1
 interdiction[70]: x[70] + u[70] <= 1
 interdiction[71]: x[71] + u[71] <= 1
 interdiction[72]: x[72] + u[72] <= 1
 interdiction[73]: x[73] + u[73] <= 1
 interdiction[74]: x[74] + u[74] <= 1
 interdiction[75]: x[75] + u[75] <= 1
 interdiction[76]: x[76] + u[76] <= 1
 interdiction[77]: x[77] + u[77] <= 1
 interdiction[78]: x[78] + u[78] <= 1
 interdiction[79]: x[79] + u[79] <= 1
 interdiction[80]: x[80] + u[80] <= 1
 interdiction[81]: x[81] + u[81] <= 1
 interdiction[82]: x[82] + u[82] <= 1
 interdiction[83]: x[83] + u[83] <= 1
 interdiction[84]: x[84] + u[84] <= 1
 interdiction[85]: x[85] + u[85] <= 1
 interdiction[86]: x[86] + u[86] <= 1
 interdiction[87]: x[87] + u[87] <= 1
 interdiction[88]: x[88] + u[88] <= 1
 interdiction[89]: x[89] + u[89] <= 1
 interdiction[90]: x[90] + u[90] <= 1
 interdiction[91]: x[91] + u[91] <= 1
 interdiction[92]: x[92] + u[92] <= 1
 interdiction[93]: x[93] + u[93] <= 1
 interdiction[94]: x[94] + u[94] <= 1
 interdiction[95]: x[95] + u[95] <= 1
 interdiction[96]: x[96] + u[96] <= 1
 interdiction[97]: x[97] + u[97] <= 1
 interdiction[98]: x[98] + u[98] <= 1
 interdiction[99]: x[99] + u[99] <= 1
 mccormick1[0]: - u[0] + z[0] <= 0
 mccormick1[1]: - u[1] + z[1] <= 0
 mccormick1[2]: - u[2] + z[2] <= 0
 mccormick1[3]: - u[3] + z[3] <= 0
 mccormick1[4]: - u[4] + z[4] <= 0
 mccormick1[5]: - u[5] + z[5] <= 0
 mccormick1[6]: - u[6] + z[6] <= 0
 mccormick1[7]: - u[7] + z[7] <= 0
 mccormick1[8]: - u[8] + z[8] <= 0
 mccormick1[9]: - u[9] + z[9] <= 0
 mccormick1[10]: - u[10] + z[10] <= 0
 mccormick1[11]: - u[11] + z[11] <= 0
 mccormick1[12]: - u[12] + z[12] <= 0
 mccormick1[13]: - u[13] + z[13] <= 0
 mccormick1[14]: - u[14] + z[14] <= 0
 mccormick1[15]: - u[15] + z[15] <= 0
 mccormick1[16]: - u[16] + z[16] <= 0
 mccormick1[17]: - u[17] + z[17] <= 0
 mccormick1[18]: - u[18] + z[18] <= 0
 mccormick1[19]: - u[19] + z[19] <= 0
 mccormick1[20]: - u[20] + z[20] <= 0
 mccormick1[21]: - u[21] + z[21] <= 0
 mccormick1[22]: - u[22] + z[22] <= 0
 mccormick1[23]: - u[23] + z[23] <= 0
 mccormick1[24]: - u[24] + z[24] <= 0
 mccormick1[25]: - u[25] + z[25] <= 0
 mccormick1[26]: - u[26] + z[26] <= 0
 mccormick1[27]: - u[27] + z[27] <= 0
 mccormick1[28]: - u[28] + z[28] <= 0
 mccormick1[29]: - u[29] + z[29] <= 0
 mccormick1[30]: - u[30] + z[30] <= 0
 mccormick1[31]: - u[31] + z[31] <= 0
 mccormick1[32]: - u[32] + z[32] <= 0
 mccormick1[33]: - u[33] + z[33] <= 0
 mccormick1[34]: - u[34] + z[34] <= 0
 mccormick1[35]: - u[35] + z[35] <= 0
 mccormick1[36]: - u[36] + z[36] <= 0
 mccormick1[37]: - u[37] + z[37] <= 0
 mccormick1[38]: - u[38] + z[38] <= 0
 mccormick1[39]: - u[39] + z[39] <= 0
 mccormick1[40]: - u[40] + z[40] <= 0
 mccormick1[41]: - u[41] + z[41] <= 0
 mccormick1[42]: - u[42] + z[42] <= 0
 mccormick1[43]: - u[43] + z[43] <= 0
 mccormick1[44]: - u[44] + z[44] <= 0
 mccormick1[45]: - u[45] + z[45] <= 0
 mccormick1[46]: - u[46] + z[46] <= 0
 mccormick1[47]: - u[47] + z[47] <= 0
 mccormick1[48]: - u[48] + z[48] <= 0
 mccormick1[49]: - u[49] + z[49] <= 0
 mccormick1[50]: - u[50] + z[50] <= 0
 mccormick1[51]: - u[51] + z[51] <= 0
 mccormick1[52]: - u[52] + z[52] <= 0
 mccormick1[53]: - u[53] + z[53] <= 0
 mccormick1[54]: - u[54] + z[54] <= 0
 mccormick1[55]: - u[55] + z[55] <= 0
 mccormick1[56]: - u[56] + z[56] <= 0
 mccormick1[57]: - u[57] + z[57] <= 0
 mccormick1[58]: - u[58] + z[58] <= 0
 mccormick1[59]: - u[59] + z[59] <= 0
 mccormick1[60]: - u[60] + z[60] <= 0
 mccormick1[61]: - u[61] + z[61] <= 0
 mccormick1[62]: - u[62] + z[62] <= 0
 mccormick1[63]: - u[63] + z[63] <= 0
 mccormick1[64]: - u[64] + z[64] <= 0
 mccormick1[65]: - u[65] + z[65] <= 0
 mccormick1[66]: - u[66] + z[66] <= 0
 mccormick1[67]: - u[67] + z[67] <= 0
 mccormick1[68]: - u[68] + z[68] <= 0
 mccormick1[69]: - u[69] + z[69] <= 0
 mccormick1[70]: - u[70] + z[70] <= 0
 mccormick1[71]: - u[71] + z[71] <= 0
 mccormick1[72]: - u[72] + z[72] <= 0
 mccormick1[73]: - u[73] + z[73] <= 0
 mccormick1[74]: - u[74] + z[74] <= 0
 mccormick1[75]: - u[75] + z[75] <= 0
 mccormick1[76]: - u[76] + z[76] <= 0
 mccormick1[77]: - u[77] + z[77] <= 0
 mccormick1[78]: - u[78] + z[78] <= 0
 mccormick1[79]: - u[79] + z[79] <= 0
 mccormick1[80]: - u[80] + z[80] <= 0
 mccormick1[81]: - u[81] + z[81] <= 0
 mccormick1[82]: - u[82] + z[82] <= 0
 mccormick1[83]: - u[83] + z[83] <= 0
 mccormick1[84]: - u[84] + z[84] <= 0
 mccormick1[85]: - u[85] + z[85] <= 0
 mccormick1[86]: - u[86] + z[86] <= 0
 mccormick1[87]: - u[87] + z[87] <= 0
 mccormick1[88]: - u[88] + z[88] <= 0
 mccormick1[89]: - u[89] + z[89] <= 0
 mccormick1[90]: - u[90] + z[90] <= 0
 mccormick1[91]: - u[91] + z[91] <= 0
 mccormick1[92]: - u[92] + z[92] <= 0
 mccormick1[93]: - u[93] + z[93] <= 0
 mccormick1[94]: - u[94] + z[94] <= 0
 mccormick1[95]: - u[95] + z[95] <= 0
 mccormick1[96]: - u[96] + z[96] <= 0
 mccormick1[97]: - u[97] + z[97] <= 0
 mccormick1[98]: - u[98] + z[98] <= 0
 mccormick1[99]: - u[99] + z[99] <= 0
 mccormick2[0]: - y[0] + z[0] <= 0
 mccormick2[1]: - y[1] + z[1] <= 0
 mccormick2[2]: - y[2] + z[2] <= 0
 mccormick2[3]: - y[3] + z[3] <= 0
 mccormick2[4]: - y[4] + z[4] <= 0
 mccormick2[5]: - y[5] + z[5] <= 0
 mccormick2[6]: - y[6] + z[6] <= 0
 mccormick2[7]: - y[7] + z[7] <= 0
 mccormick2[8]: - y[8] + z[8] <= 0
 mccormick2[9]: - y[9] + z[9] <= 0
 mccormick2[10]: - y[10] + z[10] <= 0
 mccormick2[11]: - y[11] + z[11] <= 0
 mccormick2[12]: - y[12] + z[12] <= 0
 mccormick2[13]: - y[13] + z[13] <= 0
 mccormick2[14]: - y[14] + z[14] <= 0
 mccormick2[15]: - y[15] + z[15] <= 0
 mccormick2[16]: - y[16] + z[16] <= 0
 mccormick2[17]: - y[17] + z[17] <= 0
 mccormick2[18]: - y[18] + z[18] <= 0
 mccormick2[19]: - y[19] + z[19] <= 0
 mccormick2[20]: - y[20] + z[20] <= 0
 mccormick2[21]: - y[21] + z[21] <= 0
 mccormick2[22]: - y[22] + z[22] <= 0
 mccormick2[23]: - y[23] + z[23] <= 0
 mccormick2[24]: - y[24] + z[24] <= 0
 mccormick2[25]: - y[25] + z[25] <= 0
 mccormick2[26]: - y[26] + z[26] <= 0
 mccormick2[27]: - y[27] + z[27] <= 0
 mccormick2[28]: - y[28] + z[28] <= 0
 mccormick2[29]: - y[29] + z[29] <= 0
 mccormick2[30]: - y[30] + z[30] <= 0
 mccormick2[31]: - y[31] + z[31] <= 0
 mccormick2[32]: - y[32] + z[32] <= 0
 mccormick2[33]: - y[33] + z[33] <= 0
 mccormick2[34]: - y[34] + z[34] <= 0
 mccormick2[35]: - y[35] + z[35] <= 0
 mccormick2[36]: - y[36] + z[36] <= 0
 mccormick2[37]: - y[37] + z[37] <= 0
 mccormick2[38]: - y[38] + z[38] <= 0
 mccormick2[39]: - y[39] + z[39] <= 0
 mccormick2[40]: - y[40] + z[40] <= 0
 mccormick2[41]: - y[41] + z[41] <= 0
 mccormick2[42]: - y[42] + z[42] <= 0
 mccormick2[43]: - y[43] + z[43] <= 0
 mccormick2[44]: - y[44] + z[44] <= 0
 mccormick2[45]: - y[45] + z[45] <= 0
 mccormick2[46]: - y[46] + z[46] <= 0
 mccormick2[47]: - y[47] + z[47] <= 0
 mccormick2[48]: - y[48] + z[48] <= 0
 mccormick2[49]: - y[49] + z[49] <= 0
 mccormick2[50]: - y[50] + z[50] <= 0
 mccormick2[51]: - y[51] + z[51] <= 0
 mccormick2[52]: - y[52] + z[52] <= 0
 mccormick2[53]: - y[53] + z[53] <= 0
 mccormick2[54]: - y[54] + z[54] <= 0
 mccormick2[55]: - y[55] + z[55] <= 0
 mccormick2[56]: - y[56] + z[56] <= 0
 mccormick2[57]: - y[57] + z[57] <= 0
 mccormick2[58]: - y[58] + z[58] <= 0
 mccormick2[59]: - y[59] + z[59] <= 0
 mccormick2[60]: - y[60] + z[60] <= 0
 mccormick2[61]: - y[61] + z[61] <= 0
 mccormick2[62]: - y[62] + z[62] <= 0
 mccormick2[63]: - y[63] + z[63] <= 0
 mccormick2[64]: - y[64] + z[64] <= 0
 mccormick2[65]: - y[65] + z[65] <= 0
 mccormick2[66]: - y[66] + z[66] <= 0
 mccormick2[67]: - y[67] + z[67] <= 0
 mccormick2[68]: - y[68] + z[68] <= 0
 mccormick2[69]: - y[69] + z[69] <= 0
 mccormick2[70]: - y[70] + z[70] <= 0
 mccormick2[71]: - y[71] + z[71] <= 0
 mccormick2[72]: - y[72] + z[72] <= 0
 mccormick2[73]: - y[73] + z[73] <= 0
 mccormick2[74]: - y[74] + z[74] <= 0
 mccormick2[75]: - y[75] + z[75] <= 0
 mccormick2[76]: - y[76] + z[76] <= 0
 mccormick2[77]: - y[77] + z[77] <= 0
 mccormick2[78]: - y[78] + z[78] <= 0
 mccormick2[79]: - y[79] + z[79] <= 0
 mccormick2[80]: - y[80] + z[80] <= 0
 mccormick2[81]: - y[81] + z[81] <= 0
 mccormick2[82]: - y[82] + z[82] <= 0
 mccormick2[83]: - y[83] + z[83] <= 0
 mccormick2[84]: - y[84] + z[84] <= 0
 mccormick2[85]: - y[85] + z[85] <= 0
 mccormick2[86]: - y[86] + z[86] <= 0
 mccormick2[87]: - y[87] + z[87] <= 0
 mccormick2[88]: - y[88] + z[88] <= 0
 mccormick2[89]: - y[89] + z[89] <= 0
 mccormick2[90]: - y[90] + z[90] <= 0
 mccormick2[91]: - y[91] + z[91] <= 0
 mccormick2[92]: - y[92] + z[92] <= 0
 mccormick2[93]: - y[93] + z[93] <= 0
 mccormick2[94]: - y[94] + z[94] <= 0
 mccormick2[95]: - y[95] + z[95] <= 0
 mccormick2[96]: - y[96] + z[96] <= 0
 mccormick2[97]: - y[97] + z[97] <= 0
 mccormick2[98]: - y[98] + z[98] <= 0
 mccormick2[99]: - y[99] + z[99] <= 0
 mccormick3[0]: y[0] + u[0] - z[0] <= 1
 mccormick3[1]: y[1] + u[1] - z[1] <= 1
 mccormick3[2]: y[2] + u[2] - z[2] <= 1
 mccormick3[3]: y[3] + u[3] - z[3] <= 1
 mccormick3[4]: y[4] + u[4] - z[4] <= 1
 mccormick3[5]: y[5] + u[5] - z[5] <= 1
 mccormick3[6]: y[6] + u[6] - z[6] <= 1
 mccormick3[7]: y[7] + u[7] - z[7] <= 1
 mccormick3[8]: y[8] + u[8] - z[8] <= 1
 mccormick3[9]: y[9] + u[9] - z[9] <= 1
 mccormick3[10]: y[10] + u[10] - z[10] <= 1
 mccormick3[11]: y[11] + u[11] - z[11] <= 1
 mccormick3[12]: y[12] + u[12] - z[12] <= 1
 mccormick3[13]: y[13] + u[13] - z[13] <= 1
 mccormick3[14]: y[14] + u[14] - z[14] <= 1
 mccormick3[15]: y[15] + u[15] - z[15] <= 1
 mccormick3[16]: y[16] + u[16] - z[16] <= 1
 mccormick3[17]: y[17] + u[17] - z[17] <= 1
 mccormick3[18]: y[18] + u[18] - z[18] <= 1
 mccormick3[19]: y[19] + u[19] - z[19] <= 1
 mccormick3[20]: y[20] + u[20] - z[20] <= 1
 mccormick3[21]: y[21] + u[21] - z[21] <= 1
 mccormick3[22]: y[22] + u[22] - z[22] <= 1
 mccormick3[23]: y[23] + u[23] - z[23] <= 1
 mccormick3[24]: y[24] + u[24] - z[24] <= 1
 mccormick3[25]: y[25] + u[25] - z[25] <= 1
 mccormick3[26]: y[26] + u[26] - z[26] <= 1
 mccormick3[27]: y[27] + u[27] - z[27] <= 1
 mccormick3[28]: y[28] + u[28] - z[28] <= 1
 mccormick3[29]: y[29] + u[29] - z[29] <= 1
 mccormick3[30]: y[30] + u[30] - z[30] <= 1
 mccormick3[31]: y[31] + u[31] - z[31] <= 1
 mccormick3[32]: y[32] + u[32] - z[32] <= 1
 mccormick3[33]: y[33] + u[33] - z[33] <= 1
 mccormick3[34]: y[34] + u[34] - z[34] <= 1
 mccormick3[35]: y[35] + u[35] - z[35] <= 1
 mccormick3[36]: y[36] + u[36] - z[36] <= 1
 mccormick3[37]: y[37] + u[37] - z[37] <= 1
 mccormick3[38]: y[38] + u[38] - z[38] <= 1
 mccormick3[39]: y[39] + u[39] - z[39] <= 1
 mccormick3[40]: y[40] + u[40] - z[40] <= 1
 mccormick3[41]: y[41] + u[41] - z[41] <= 1
 mccormick3[42]: y[42] + u[42] - z[42] <= 1
 mccormick3[43]: y[43] + u[43] - z[43] <= 1
 mccormick3[44]: y[44] + u[44] - z[44] <= 1
 mccormick3[45]: y[45] + u[45] - z[45] <= 1
 mccormick3[46]: y[46] + u[46] - z[46] <= 1
 mccormick3[47]: y[47] + u[47] - z[47] <= 1
 mccormick3[48]: y[48] + u[48] - z[48] <= 1
 mccormick3[49]: y[49] + u[49] - z[49] <= 1
 mccormick3[50]: y[50] + u[50] - z[50] <= 1
 mccormick3[51]: y[51] + u[51] - z[51] <= 1
 mccormick3[52]: y[52] + u[52] - z[52] <= 1
 mccormick3[53]: y[53] + u[53] - z[53] <= 1
 mccormick3[54]: y[54] + u[54] - z[54] <= 1
 mccormick3[55]: y[55] + u[55] - z[55] <= 1
 mccormick3[56]: y[56] + u[56] - z[56] <= 1
 mccormick3[57]: y[57] + u[57] - z[57] <= 1
 mccormick3[58]: y[58] + u[58] - z[58] <= 1
 mccormick3[59]: y[59] + u[59] - z[59] <= 1
 mccormick3[60]: y[60] + u[60] - z[60] <= 1
 mccormick3[61]: y[61] + u[61] - z[61] <= 1
 mccormick3[62]: y[62] + u[62] - z[62] <= 1
 mccormick3[63]: y[63] + u[63] - z[63] <= 1
 mccormick3[64]: y[64] + u[64] - z[64] <= 1
 mccormick3[65]: y[65] + u[65] - z[65] <= 1
 mccormick3[66]: y[66] + u[66] - z[66] <= 1
 mccormick3[67]: y[67] + u[67] - z[67] <= 1
 mccormick3[68]: y[68] + u[68] - z[68] <= 1
 mccormick3[69]: y[69] + u[69] - z[69] <= 1
 mccormick3[70]: y[70] + u[70] - z[70] <= 1
 mccormick3[71]: y[71] + u[71] - z[71] <= 1
 mccormick3[72]: y[72] + u[72] - z[72] <= 1
 mccormick3[73]: y[73] + u[73] - z[73] <= 1
 mccormick3[74]: y[74] + u[74] - z[74] <= 1
 mccormick3[75]: y[75] + u[75] - z[75] <= 1
 mccormick3[76]: y[76] + u[76] - z[76] <= 1
 mccormick3[77]: y[77] + u[77] - z[77] <= 1
 mccormick3[78]: y[78] + u[78] - z[78] <= 1
 mccormick3[79]: y[79] + u[79] - z[79] <= 1
 mccormick3[80]: y[80] + u[80] - z[80] <= 1
 mccormick3[81]: y[81] + u[81] - z[81] <= 1
 mccormick3[82]: y[82] + u[82] - z[82] <= 1
 mccormick3[83]: y[83] + u[83] - z[83] <= 1
 mccormick3[84]: y[84] + u[84] - z[84] <= 1
 mccormick3[85]: y[85] + u[85] - z[85] <= 1
 mccormick3[86]: y[86] + u[86] - z[86] <= 1
 mccormick3[87]: y[87] + u[87] - z[87] <= 1
 mccormick3[88]: y[88] + u[88] - z[88] <= 1
 mccormick3[89]: y[89] + u[89] - z[89] <= 1
 mccormick3[90]: y[90] + u[90] - z[90] <= 1
 mccormick3[91]: y[91] + u[91] - z[91] <= 1
 mccormick3[92]: y[92] + u[92] - z[92] <= 1
 mccormick3[93]: y[93] + u[93] - z[93] <= 1
 mccormick3[94]: y[94] + u[94] - z[94] <= 1
 mccormick3[95]: y[95] + u[95] - z[95] <= 1
 mccormick3[96]: y[96] + u[96] - z[96] <= 1
 mccormick3[97]: y[97] + u[97] - z[97] <= 1
 mccormick3[98]: y[98] + u[98] - z[98] <= 1
 mccormick3[99]: y[99] + u[99] - z[99] <= 1
Bounds
Binaries
 x[0] x[1] x[2] x[3] x[4] x[5] x[6] x[7] x[8] x[9] x[10] x[11] x[12] x[13]
 x[14] x[15] x[16] x[17] x[18] x[19] x[20] x[21] x[22] x[23] x[24] x[25]
 x[26] x[27] x[28] x[29] x[30] x[31] x[32] x[33] x[34] x[35] x[36] x[37]
 x[38] x[39] x[40] x[41] x[42] x[43] x[44] x[45] x[46] x[47] x[48] x[49]
 x[50] x[51] x[52] x[53] x[54] x[55] x[56] x[57] x[58] x[59] x[60] x[61]
 x[62] x[63] x[64] x[65] x[66] x[67] x[68] x[69] x[70] x[71] x[72] x[73]
 x[74] x[75] x[76] x[77] x[78] x[79] x[80] x[81] x[82] x[83] x[84] x[85]
 x[86] x[87] x[88] x[89] x[90] x[91] x[92] x[93] x[94] x[95] x[96] x[97]
 x[98] x[99] y[0] y[1] y[2] y[3] y[4] y[5] y[6] y[7] y[8] y[9] y[10] y[11]
 y[12] y[13] y[14] y[15] y[16] y[17] y[18] y[19] y[20] y[21] y[22] y[23]
 y[24] y[25] y[26] y[27] y[28] y[29] y[30] y[31] y[32] y[33] y[34] y[35]
 y[36] y[37] y[38] y[39] y[40] y[41] y[42] y[43] y[44] y[45] y[46] y[47]
 y[48] y[49] y[50] y[51] y[52] y[53] y[54] y[55] y[56] y[57] y[58] y[59]
 y[60] y[61] y[62] y[63] y[64] y[65] y[66] y[67] y[68] y[69] y[70] y[71]
 y[72] y[73] y[74] y[75] y[76] y[77] y[78] y[79] y[80] y[81] y[82] y[83]
 y[84] y[85] y[86] y[87] y[88] y[89] y[90] y[91] y[92] y[93] y[94] y[95]
 y[96] y[97] y[98] y[99] u[0] u[1] u[2] u[3] u[4] u[5] u[6] u[7] u[8] u[9]
 u[10] u[11] u[12] u[13] u[14] u[15] u[16] u[17] u[18] u[19] u[20] u[21]
 u[22] u[23] u[24] u[25] u[26] u[27] u[28] u[29] u[30] u[31] u[32] u[33]
 u[34] u[35] u[36] u[37] u[38] u[39] u[40] u[41] u[42] u[43] u[44] u[45]
 u[46] u[47] u[48] u[49] u[50] u[51] u[52] u[53] u[54] u[55] u[56] u[57]
 u[58] u[59] u[60] u[61] u[62] u[63] u[64] u[65] u[66] u[67] u[68] u[69]
 u[70] u[71] u[72] u[73] u[74] u[75] u[76] u[77] u[78] u[79] u[80] u[81]
 u[82] u[83] u[84] u[85] u[86] u[87] u[88] u[89] u[90] u[91] u[92] u[93]
 u[94] u[95] u[96] u[97] u[98] u[99] z[0] z[1] z[2] z[3] z[4] z[5] z[6]
 z[7] z[8] z[9] z[10] z[11] z[12] z[13] z[14] z[15] z[16] z[17] z[18] z[19]
 z[20] z[21] z[22] z[23] z[24] z[25] z[26] z[27] z[28] z[29] z[30] z[31]
 z[32] z[33] z[34] z[35] z[36] z[37] z[38] z[39] z[40] z[41] z[42] z[43]
 z[44] z[45] z[46] z[47] z[48] z[49] z[50] z[51] z[52] z[53] z[54] z[55]
 z[56] z[57] z[58] z[59] z[60] z[61] z[62] z[63] z[64] z[65] z[66] z[67]
 z[68] z[69] z[70] z[71] z[72] z[73] z[74] z[75] z[76] z[77] z[78] z[79]
 z[80] z[81] z[82] z[83] z[84] z[85] z[86] z[87] z[88] z[89] z[90] z[91]
 z[92] z[93] z[94] z[95] z[96] z[97] z[98] z[99]
End
